(declare-fun x () String)

(assert (str.in.re x (re.++  (str.to.re "\x4e01") (re.*  (re.union  (str.to.re "\x4e02") (re.union  (str.to.re "\x4e03") (re.union  (str.to.re "\x4e04") (re.union  (str.to.re "\x4e05") (re.union  (str.to.re "\x4e06") (re.union  (str.to.re "\x4e07") (re.union  (str.to.re "\x4e08") (re.union  (str.to.re "\x4e09") (re.union  (str.to.re "\x4e0a") (re.union  (str.to.re "\x4e0b") (re.union  (str.to.re "\x4e0c") (re.union  (str.to.re "\x4e0d") (re.union  (str.to.re "\x4e0e") (re.union  (str.to.re "\x4e0f") (re.union  (str.to.re "\x4e10") (re.union  (str.to.re "\x4e11") (re.union  (str.to.re "\x4e12") (re.union  (str.to.re "\x4e13") (re.union  (str.to.re "\x4e14") (re.union  (str.to.re "\x4e15") (re.union  (str.to.re "\x4e16") (re.union  (str.to.re "\x4e17") (re.union  (str.to.re "\x4e18") (re.union  (str.to.re "\x4e19") (re.union  (str.to.re "\x4e1a") (re.union  (str.to.re "\x4e1b") (re.union  (str.to.re "\x4e1c") (re.union  (str.to.re "\x4e1d") (re.union  (str.to.re "\x4e1e") (re.union  (str.to.re "\x4e1f") (re.union  (str.to.re "\x4e20") (re.union  (str.to.re "\x4e21") (re.union  (str.to.re "\x4e22") (re.union  (str.to.re "\x4e23") (re.union  (str.to.re "\x4e24") (re.union  (str.to.re "\x4e25") (re.union  (str.to.re "\x4e26") (re.union  (str.to.re "\x4e27") (re.union  (str.to.re "\x4e28") (re.union  (str.to.re "\x4e29") (re.union  (str.to.re "\x4e2a") (re.union  (str.to.re "\x4e2b") (re.union  (str.to.re "\x4e2c") (re.union  (str.to.re "\x4e2d") (re.union  (str.to.re "\x4e2e") (re.union  (str.to.re "\x4e2f") (re.union  (str.to.re "\x4e30") (re.union  (str.to.re "\x4e31") (re.union  (str.to.re "\x4e32") (re.union  (str.to.re "\x4e33") (re.union  (str.to.re "\x4e34") (re.union  (str.to.re "\x4e35") (re.union  (str.to.re "\x4e36") (re.union  (str.to.re "\x4e37") (re.union  (str.to.re "\x4e38") (re.union  (str.to.re "\x4e39") (re.union  (str.to.re "\x4e3a") (re.union  (str.to.re "\x4e3b") (re.union  (str.to.re "\x4e3c") (re.union  (str.to.re "\x4e3d") (re.union  (str.to.re "\x4e3e") (re.union  (str.to.re "\x4e3f") (re.union  (str.to.re "\x4e40") (re.union  (str.to.re "\x4e41") (re.union  (str.to.re "\x4e42") (re.union  (str.to.re "\x4e43") (re.union  (str.to.re "\x4e44") (re.union  (str.to.re "\x4e45") (re.union  (str.to.re "\x4e46") (re.union  (str.to.re "\x4e47") (re.union  (str.to.re "\x4e48") (re.union  (str.to.re "\x4e49") (re.union  (str.to.re "\x4e4a") (re.union  (str.to.re "\x4e4b") (re.union  (str.to.re "\x4e4c") (re.union  (str.to.re "\x4e4d") (re.union  (str.to.re "\x4e4e") (re.union  (str.to.re "\x4e4f") (re.union  (str.to.re "\x4e50") (re.union  (str.to.re "\x4e51") (re.union  (str.to.re "\x4e52") (re.union  (str.to.re "\x4e53") (re.union  (str.to.re "\x4e54") (re.union  (str.to.re "\x4e55") (re.union  (str.to.re "\x4e56") (re.union  (str.to.re "\x4e57") (re.union  (str.to.re "\x4e58") (re.union  (str.to.re "\x4e59") (re.union  (str.to.re "\x4e5a") (re.union  (str.to.re "\x4e5b") (re.union  (str.to.re "\x4e5c") (re.union  (str.to.re "\x4e5d") (re.union  (str.to.re "\x4e5e")  (str.to.re "\x4e5f")))))))))))))))))))))))))))))))))))))))))))))))))))))))))))))))))))))))))))))))))))))))))))))) ))))
(assert (str.in.re x (re.++  (re.union  (str.to.re "\x4e01") (re.union  (str.to.re "\x4e02") (re.union  (str.to.re "\x4e03") (re.union  (str.to.re "\x4e04") (re.union  (str.to.re "\x4e05") (re.union  (str.to.re "\x4e06") (re.union  (str.to.re "\x4e07") (re.union  (str.to.re "\x4e08") (re.union  (str.to.re "\x4e09") (re.union  (str.to.re "\x4e0a") (re.union  (str.to.re "\x4e0b") (re.union  (str.to.re "\x4e0c") (re.union  (str.to.re "\x4e0d") (re.union  (str.to.re "\x4e0e") (re.union  (str.to.re "\x4e0f") (re.union  (str.to.re "\x4e10") (re.union  (str.to.re "\x4e11") (re.union  (str.to.re "\x4e12") (re.union  (str.to.re "\x4e13") (re.union  (str.to.re "\x4e14") (re.union  (str.to.re "\x4e15") (re.union  (str.to.re "\x4e16") (re.union  (str.to.re "\x4e17") (re.union  (str.to.re "\x4e18") (re.union  (str.to.re "\x4e19") (re.union  (str.to.re "\x4e1a") (re.union  (str.to.re "\x4e1b") (re.union  (str.to.re "\x4e1c") (re.union  (str.to.re "\x4e1d") (re.union  (str.to.re "\x4e1e") (re.union  (str.to.re "\x4e1f") (re.union  (str.to.re "\x4e20") (re.union  (str.to.re "\x4e21") (re.union  (str.to.re "\x4e22") (re.union  (str.to.re "\x4e23") (re.union  (str.to.re "\x4e24") (re.union  (str.to.re "\x4e25") (re.union  (str.to.re "\x4e26") (re.union  (str.to.re "\x4e27") (re.union  (str.to.re "\x4e28") (re.union  (str.to.re "\x4e29") (re.union  (str.to.re "\x4e2a") (re.union  (str.to.re "\x4e2b") (re.union  (str.to.re "\x4e2c") (re.union  (str.to.re "\x4e2d") (re.union  (str.to.re "\x4e2e") (re.union  (str.to.re "\x4e2f") (re.union  (str.to.re "\x4e30") (re.union  (str.to.re "\x4e31") (re.union  (str.to.re "\x4e32") (re.union  (str.to.re "\x4e33") (re.union  (str.to.re "\x4e34") (re.union  (str.to.re "\x4e35") (re.union  (str.to.re "\x4e36") (re.union  (str.to.re "\x4e37") (re.union  (str.to.re "\x4e38") (re.union  (str.to.re "\x4e39") (re.union  (str.to.re "\x4e3a") (re.union  (str.to.re "\x4e3b") (re.union  (str.to.re "\x4e3c") (re.union  (str.to.re "\x4e3d") (re.union  (str.to.re "\x4e3e") (re.union  (str.to.re "\x4e3f") (re.union  (str.to.re "\x4e40") (re.union  (str.to.re "\x4e41") (re.union  (str.to.re "\x4e42") (re.union  (str.to.re "\x4e43") (re.union  (str.to.re "\x4e44") (re.union  (str.to.re "\x4e45") (re.union  (str.to.re "\x4e46") (re.union  (str.to.re "\x4e47") (re.union  (str.to.re "\x4e48") (re.union  (str.to.re "\x4e49") (re.union  (str.to.re "\x4e4a") (re.union  (str.to.re "\x4e4b") (re.union  (str.to.re "\x4e4c") (re.union  (str.to.re "\x4e4d") (re.union  (str.to.re "\x4e4e") (re.union  (str.to.re "\x4e4f") (re.union  (str.to.re "\x4e50") (re.union  (str.to.re "\x4e51") (re.union  (str.to.re "\x4e52") (re.union  (str.to.re "\x4e53") (re.union  (str.to.re "\x4e54") (re.union  (str.to.re "\x4e55") (re.union  (str.to.re "\x4e56") (re.union  (str.to.re "\x4e57") (re.union  (str.to.re "\x4e58") (re.union  (str.to.re "\x4e59") (re.union  (str.to.re "\x4e5a") (re.union  (str.to.re "\x4e5b") (re.union  (str.to.re "\x4e5c") (re.union  (str.to.re "\x4e5d") (re.union  (str.to.re "\x4e5e") (re.union  (str.to.re "\x4e5f") (re.union  (str.to.re "\x4e60") (re.union  (str.to.re "\x4e61") (re.union  (str.to.re "\x4e62") (re.union  (str.to.re "\x4e63") (re.union  (str.to.re "\x4e64") (re.union  (str.to.re "\x4e65") (re.union  (str.to.re "\x4e66") (re.union  (str.to.re "\x4e67") (re.union  (str.to.re "\x4e68") (re.union  (str.to.re "\x4e69") (re.union  (str.to.re "\x4e6a") (re.union  (str.to.re "\x4e6b") (re.union  (str.to.re "\x4e6c") (re.union  (str.to.re "\x4e6d") (re.union  (str.to.re "\x4e6e") (re.union  (str.to.re "\x4e6f") (re.union  (str.to.re "\x4e70") (re.union  (str.to.re "\x4e71") (re.union  (str.to.re "\x4e72") (re.union  (str.to.re "\x4e73") (re.union  (str.to.re "\x4e74") (re.union  (str.to.re "\x4e75") (re.union  (str.to.re "\x4e76") (re.union  (str.to.re "\x4e77") (re.union  (str.to.re "\x4e78") (re.union  (str.to.re "\x4e79") (re.union  (str.to.re "\x4e7a") (re.union  (str.to.re "\x4e7b") (re.union  (str.to.re "\x4e7c") (re.union  (str.to.re "\x4e7d") (re.union  (str.to.re "\x4e7e") (re.union  (str.to.re "\x4e7f") (re.union  (str.to.re "\x4e80") (re.union  (str.to.re "\x4e81") (re.union  (str.to.re "\x4e82") (re.union  (str.to.re "\x4e83") (re.union  (str.to.re "\x4e84") (re.union  (str.to.re "\x4e85") (re.union  (str.to.re "\x4e86") (re.union  (str.to.re "\x4e87") (re.union  (str.to.re "\x4e88") (re.union  (str.to.re "\x4e89") (re.union  (str.to.re "\x4e8a") (re.union  (str.to.re "\x4e8b") (re.union  (str.to.re "\x4e8c") (re.union  (str.to.re "\x4e8d") (re.union  (str.to.re "\x4e8e") (re.union  (str.to.re "\x4e8f") (re.union  (str.to.re "\x4e90") (re.union  (str.to.re "\x4e91") (re.union  (str.to.re "\x4e92") (re.union  (str.to.re "\x4e93") (re.union  (str.to.re "\x4e94") (re.union  (str.to.re "\x4e95") (re.union  (str.to.re "\x4e96") (re.union  (str.to.re "\x4e97") (re.union  (str.to.re "\x4e98") (re.union  (str.to.re "\x4e99") (re.union  (str.to.re "\x4e9a") (re.union  (str.to.re "\x4e9b") (re.union  (str.to.re "\x4e9c") (re.union  (str.to.re "\x4e9d") (re.union  (str.to.re "\x4e9e") (re.union  (str.to.re "\x4e9f") (re.union  (str.to.re "\x4ea0") (re.union  (str.to.re "\x4ea1") (re.union  (str.to.re "\x4ea2") (re.union  (str.to.re "\x4ea3") (re.union  (str.to.re "\x4ea4") (re.union  (str.to.re "\x4ea5") (re.union  (str.to.re "\x4ea6") (re.union  (str.to.re "\x4ea7")  (str.to.re "\x4ea8")))))))))))))))))))))))))))))))))))))))))))))))))))))))))))))))))))))))))))))))))))))))))))))))))))))))))))))))))))))))))))))))))))))))))))))))))))))))))))))))))))))))) (re.++  (re.union  (str.to.re "\x4e01") (re.union  (str.to.re "\x4e02") (re.union  (str.to.re "\x4e03") (re.union  (str.to.re "\x4e04") (re.union  (str.to.re "\x4e05") (re.union  (str.to.re "\x4e06") (re.union  (str.to.re "\x4e07") (re.union  (str.to.re "\x4e08") (re.union  (str.to.re "\x4e09") (re.union  (str.to.re "\x4e0a") (re.union  (str.to.re "\x4e0b") (re.union  (str.to.re "\x4e0c") (re.union  (str.to.re "\x4e0d") (re.union  (str.to.re "\x4e0e") (re.union  (str.to.re "\x4e0f") (re.union  (str.to.re "\x4e10") (re.union  (str.to.re "\x4e11") (re.union  (str.to.re "\x4e12") (re.union  (str.to.re "\x4e13") (re.union  (str.to.re "\x4e14") (re.union  (str.to.re "\x4e15") (re.union  (str.to.re "\x4e16") (re.union  (str.to.re "\x4e17") (re.union  (str.to.re "\x4e18") (re.union  (str.to.re "\x4e19") (re.union  (str.to.re "\x4e1a") (re.union  (str.to.re "\x4e1b") (re.union  (str.to.re "\x4e1c") (re.union  (str.to.re "\x4e1d") (re.union  (str.to.re "\x4e1e") (re.union  (str.to.re "\x4e1f") (re.union  (str.to.re "\x4e20") (re.union  (str.to.re "\x4e21") (re.union  (str.to.re "\x4e22") (re.union  (str.to.re "\x4e23") (re.union  (str.to.re "\x4e24") (re.union  (str.to.re "\x4e25") (re.union  (str.to.re "\x4e26") (re.union  (str.to.re "\x4e27") (re.union  (str.to.re "\x4e28") (re.union  (str.to.re "\x4e29") (re.union  (str.to.re "\x4e2a") (re.union  (str.to.re "\x4e2b") (re.union  (str.to.re "\x4e2c") (re.union  (str.to.re "\x4e2d") (re.union  (str.to.re "\x4e2e") (re.union  (str.to.re "\x4e2f") (re.union  (str.to.re "\x4e30") (re.union  (str.to.re "\x4e31") (re.union  (str.to.re "\x4e32") (re.union  (str.to.re "\x4e33") (re.union  (str.to.re "\x4e34") (re.union  (str.to.re "\x4e35") (re.union  (str.to.re "\x4e36") (re.union  (str.to.re "\x4e37") (re.union  (str.to.re "\x4e38") (re.union  (str.to.re "\x4e39") (re.union  (str.to.re "\x4e3a") (re.union  (str.to.re "\x4e3b") (re.union  (str.to.re "\x4e3c") (re.union  (str.to.re "\x4e3d") (re.union  (str.to.re "\x4e3e") (re.union  (str.to.re "\x4e3f") (re.union  (str.to.re "\x4e40") (re.union  (str.to.re "\x4e41") (re.union  (str.to.re "\x4e42") (re.union  (str.to.re "\x4e43") (re.union  (str.to.re "\x4e44") (re.union  (str.to.re "\x4e45") (re.union  (str.to.re "\x4e46") (re.union  (str.to.re "\x4e47") (re.union  (str.to.re "\x4e48") (re.union  (str.to.re "\x4e49") (re.union  (str.to.re "\x4e4a") (re.union  (str.to.re "\x4e4b") (re.union  (str.to.re "\x4e4c") (re.union  (str.to.re "\x4e4d") (re.union  (str.to.re "\x4e4e") (re.union  (str.to.re "\x4e4f") (re.union  (str.to.re "\x4e50") (re.union  (str.to.re "\x4e51") (re.union  (str.to.re "\x4e52") (re.union  (str.to.re "\x4e53") (re.union  (str.to.re "\x4e54") (re.union  (str.to.re "\x4e55") (re.union  (str.to.re "\x4e56") (re.union  (str.to.re "\x4e57") (re.union  (str.to.re "\x4e58") (re.union  (str.to.re "\x4e59") (re.union  (str.to.re "\x4e5a") (re.union  (str.to.re "\x4e5b") (re.union  (str.to.re "\x4e5c") (re.union  (str.to.re "\x4e5d") (re.union  (str.to.re "\x4e5e") (re.union  (str.to.re "\x4e5f") (re.union  (str.to.re "\x4e60") (re.union  (str.to.re "\x4e61") (re.union  (str.to.re "\x4e62") (re.union  (str.to.re "\x4e63") (re.union  (str.to.re "\x4e64") (re.union  (str.to.re "\x4e65") (re.union  (str.to.re "\x4e66") (re.union  (str.to.re "\x4e67") (re.union  (str.to.re "\x4e68") (re.union  (str.to.re "\x4e69") (re.union  (str.to.re "\x4e6a") (re.union  (str.to.re "\x4e6b") (re.union  (str.to.re "\x4e6c") (re.union  (str.to.re "\x4e6d") (re.union  (str.to.re "\x4e6e") (re.union  (str.to.re "\x4e6f") (re.union  (str.to.re "\x4e70") (re.union  (str.to.re "\x4e71") (re.union  (str.to.re "\x4e72") (re.union  (str.to.re "\x4e73") (re.union  (str.to.re "\x4e74") (re.union  (str.to.re "\x4e75") (re.union  (str.to.re "\x4e76") (re.union  (str.to.re "\x4e77") (re.union  (str.to.re "\x4e78") (re.union  (str.to.re "\x4e79") (re.union  (str.to.re "\x4e7a") (re.union  (str.to.re "\x4e7b") (re.union  (str.to.re "\x4e7c") (re.union  (str.to.re "\x4e7d") (re.union  (str.to.re "\x4e7e") (re.union  (str.to.re "\x4e7f") (re.union  (str.to.re "\x4e80") (re.union  (str.to.re "\x4e81") (re.union  (str.to.re "\x4e82") (re.union  (str.to.re "\x4e83") (re.union  (str.to.re "\x4e84") (re.union  (str.to.re "\x4e85") (re.union  (str.to.re "\x4e86") (re.union  (str.to.re "\x4e87") (re.union  (str.to.re "\x4e88") (re.union  (str.to.re "\x4e89") (re.union  (str.to.re "\x4e8a") (re.union  (str.to.re "\x4e8b") (re.union  (str.to.re "\x4e8c") (re.union  (str.to.re "\x4e8d") (re.union  (str.to.re "\x4e8e") (re.union  (str.to.re "\x4e8f") (re.union  (str.to.re "\x4e90") (re.union  (str.to.re "\x4e91") (re.union  (str.to.re "\x4e92") (re.union  (str.to.re "\x4e93") (re.union  (str.to.re "\x4e94") (re.union  (str.to.re "\x4e95") (re.union  (str.to.re "\x4e96") (re.union  (str.to.re "\x4e97") (re.union  (str.to.re "\x4e98") (re.union  (str.to.re "\x4e99") (re.union  (str.to.re "\x4e9a") (re.union  (str.to.re "\x4e9b") (re.union  (str.to.re "\x4e9c") (re.union  (str.to.re "\x4e9d") (re.union  (str.to.re "\x4e9e") (re.union  (str.to.re "\x4e9f") (re.union  (str.to.re "\x4ea0") (re.union  (str.to.re "\x4ea1") (re.union  (str.to.re "\x4ea2") (re.union  (str.to.re "\x4ea3") (re.union  (str.to.re "\x4ea4") (re.union  (str.to.re "\x4ea5") (re.union  (str.to.re "\x4ea6") (re.union  (str.to.re "\x4ea7")  (str.to.re "\x4ea8"))))))))))))))))))))))))))))))))))))))))))))))))))))))))))))))))))))))))))))))))))))))))))))))))))))))))))))))))))))))))))))))))))))))))))))))))))))))))))))))))))))))))  (re.union  (str.to.re "\x4e01") (re.union  (str.to.re "\x4e02") (re.union  (str.to.re "\x4e03") (re.union  (str.to.re "\x4e04") (re.union  (str.to.re "\x4e05") (re.union  (str.to.re "\x4e06") (re.union  (str.to.re "\x4e07") (re.union  (str.to.re "\x4e08") (re.union  (str.to.re "\x4e09") (re.union  (str.to.re "\x4e0a") (re.union  (str.to.re "\x4e0b") (re.union  (str.to.re "\x4e0c") (re.union  (str.to.re "\x4e0d") (re.union  (str.to.re "\x4e0e") (re.union  (str.to.re "\x4e0f") (re.union  (str.to.re "\x4e10") (re.union  (str.to.re "\x4e11") (re.union  (str.to.re "\x4e12") (re.union  (str.to.re "\x4e13") (re.union  (str.to.re "\x4e14") (re.union  (str.to.re "\x4e15") (re.union  (str.to.re "\x4e16") (re.union  (str.to.re "\x4e17") (re.union  (str.to.re "\x4e18") (re.union  (str.to.re "\x4e19") (re.union  (str.to.re "\x4e1a") (re.union  (str.to.re "\x4e1b") (re.union  (str.to.re "\x4e1c") (re.union  (str.to.re "\x4e1d") (re.union  (str.to.re "\x4e1e") (re.union  (str.to.re "\x4e1f") (re.union  (str.to.re "\x4e20") (re.union  (str.to.re "\x4e21") (re.union  (str.to.re "\x4e22") (re.union  (str.to.re "\x4e23") (re.union  (str.to.re "\x4e24") (re.union  (str.to.re "\x4e25") (re.union  (str.to.re "\x4e26") (re.union  (str.to.re "\x4e27") (re.union  (str.to.re "\x4e28") (re.union  (str.to.re "\x4e29") (re.union  (str.to.re "\x4e2a") (re.union  (str.to.re "\x4e2b") (re.union  (str.to.re "\x4e2c") (re.union  (str.to.re "\x4e2d") (re.union  (str.to.re "\x4e2e") (re.union  (str.to.re "\x4e2f") (re.union  (str.to.re "\x4e30") (re.union  (str.to.re "\x4e31") (re.union  (str.to.re "\x4e32") (re.union  (str.to.re "\x4e33") (re.union  (str.to.re "\x4e34") (re.union  (str.to.re "\x4e35") (re.union  (str.to.re "\x4e36") (re.union  (str.to.re "\x4e37") (re.union  (str.to.re "\x4e38") (re.union  (str.to.re "\x4e39") (re.union  (str.to.re "\x4e3a") (re.union  (str.to.re "\x4e3b") (re.union  (str.to.re "\x4e3c") (re.union  (str.to.re "\x4e3d") (re.union  (str.to.re "\x4e3e") (re.union  (str.to.re "\x4e3f") (re.union  (str.to.re "\x4e40") (re.union  (str.to.re "\x4e41") (re.union  (str.to.re "\x4e42") (re.union  (str.to.re "\x4e43") (re.union  (str.to.re "\x4e44") (re.union  (str.to.re "\x4e45") (re.union  (str.to.re "\x4e46") (re.union  (str.to.re "\x4e47") (re.union  (str.to.re "\x4e48") (re.union  (str.to.re "\x4e49") (re.union  (str.to.re "\x4e4a") (re.union  (str.to.re "\x4e4b") (re.union  (str.to.re "\x4e4c") (re.union  (str.to.re "\x4e4d") (re.union  (str.to.re "\x4e4e") (re.union  (str.to.re "\x4e4f") (re.union  (str.to.re "\x4e50") (re.union  (str.to.re "\x4e51") (re.union  (str.to.re "\x4e52") (re.union  (str.to.re "\x4e53") (re.union  (str.to.re "\x4e54") (re.union  (str.to.re "\x4e55") (re.union  (str.to.re "\x4e56") (re.union  (str.to.re "\x4e57") (re.union  (str.to.re "\x4e58") (re.union  (str.to.re "\x4e59") (re.union  (str.to.re "\x4e5a") (re.union  (str.to.re "\x4e5b") (re.union  (str.to.re "\x4e5c") (re.union  (str.to.re "\x4e5d") (re.union  (str.to.re "\x4e5e") (re.union  (str.to.re "\x4e5f") (re.union  (str.to.re "\x4e60") (re.union  (str.to.re "\x4e61") (re.union  (str.to.re "\x4e62") (re.union  (str.to.re "\x4e63") (re.union  (str.to.re "\x4e64") (re.union  (str.to.re "\x4e65") (re.union  (str.to.re "\x4e66") (re.union  (str.to.re "\x4e67") (re.union  (str.to.re "\x4e68") (re.union  (str.to.re "\x4e69") (re.union  (str.to.re "\x4e6a") (re.union  (str.to.re "\x4e6b") (re.union  (str.to.re "\x4e6c") (re.union  (str.to.re "\x4e6d") (re.union  (str.to.re "\x4e6e") (re.union  (str.to.re "\x4e6f") (re.union  (str.to.re "\x4e70") (re.union  (str.to.re "\x4e71") (re.union  (str.to.re "\x4e72") (re.union  (str.to.re "\x4e73") (re.union  (str.to.re "\x4e74") (re.union  (str.to.re "\x4e75") (re.union  (str.to.re "\x4e76") (re.union  (str.to.re "\x4e77") (re.union  (str.to.re "\x4e78") (re.union  (str.to.re "\x4e79") (re.union  (str.to.re "\x4e7a") (re.union  (str.to.re "\x4e7b") (re.union  (str.to.re "\x4e7c") (re.union  (str.to.re "\x4e7d") (re.union  (str.to.re "\x4e7e") (re.union  (str.to.re "\x4e7f") (re.union  (str.to.re "\x4e80") (re.union  (str.to.re "\x4e81") (re.union  (str.to.re "\x4e82") (re.union  (str.to.re "\x4e83") (re.union  (str.to.re "\x4e84") (re.union  (str.to.re "\x4e85") (re.union  (str.to.re "\x4e86") (re.union  (str.to.re "\x4e87") (re.union  (str.to.re "\x4e88") (re.union  (str.to.re "\x4e89") (re.union  (str.to.re "\x4e8a") (re.union  (str.to.re "\x4e8b") (re.union  (str.to.re "\x4e8c") (re.union  (str.to.re "\x4e8d") (re.union  (str.to.re "\x4e8e") (re.union  (str.to.re "\x4e8f") (re.union  (str.to.re "\x4e90") (re.union  (str.to.re "\x4e91") (re.union  (str.to.re "\x4e92") (re.union  (str.to.re "\x4e93") (re.union  (str.to.re "\x4e94") (re.union  (str.to.re "\x4e95") (re.union  (str.to.re "\x4e96") (re.union  (str.to.re "\x4e97") (re.union  (str.to.re "\x4e98") (re.union  (str.to.re "\x4e99") (re.union  (str.to.re "\x4e9a") (re.union  (str.to.re "\x4e9b") (re.union  (str.to.re "\x4e9c") (re.union  (str.to.re "\x4e9d") (re.union  (str.to.re "\x4e9e") (re.union  (str.to.re "\x4e9f") (re.union  (str.to.re "\x4ea0") (re.union  (str.to.re "\x4ea1") (re.union  (str.to.re "\x4ea2") (re.union  (str.to.re "\x4ea3") (re.union  (str.to.re "\x4ea4") (re.union  (str.to.re "\x4ea5") (re.union  (str.to.re "\x4ea6") (re.union  (str.to.re "\x4ea7")  (str.to.re "\x4ea8"))))))))))))))))))))))))))))))))))))))))))))))))))))))))))))))))))))))))))))))))))))))))))))))))))))))))))))))))))))))))))))))))))))))))))))))))))))))))))))))))))))))))))))
(check-sat)
(get-model)